# This is a sample PSI4 job used to compute the benzene MP2/aug-cc-pVTZ energy.
set_num_threads(2)
memory 2000 mb

molecule monomer {
0 1
C      1.205074    -0.695750     0.000000
C      0.000000    -1.391500     0.000000
C     -1.205074    -0.695750     0.000000
C     -1.205074     0.695750     0.000000
C      0.000000     1.391500     0.000000
C      1.205074     0.695750     0.000000
H      2.140382    -1.235750     0.000000
H      0.000000    -2.471500     0.000000
H     -2.140382    -1.235750     0.000000
H     -2.140382     1.235750     0.000000
H      0.000000     2.471500     0.000000
H      2.140382     1.235750     0.000000
}

set globals {
    freeze_core   true
    guess         sad
    scf_type      df
    mp_type       df
}


energy('mp2/aug-cc-pvtz')

print_variables()
